SAT
-1 -75 -74 -4 9 -46 42 5 -70 -35 -48 -68 67 43 51 11 -69 58 -54 -33 22 27 -50 62 -19 18 73 -2 -72 49 63 -40 26 56 -30 8 16 -21 39 45 10 -47 65 17 6 -38 66 31 25 32 34 15 3 -61 53 -14 -41 -52 -13 -60 64 24 -28 -36 57 -12 -55 -71 -7 -23 -37 59 44 29 -20 0
